Optimal - objective value 164.00000000
      0 C                       164                       0
      1 x_0_0       9.99999999999995                       0
      2 x_0_1                    12                       0
      3 x_0_2                    23                       0
      4 x_0_3       34.9999999999999                       0
      5 x_0_4                   122                       0
      6 x_0_5                   148                       0
      7 x_0_6                   161                       0
      8 x_1_0       6.99999999999997                       0
      9 x_1_1                    85                       0
     10 x_1_2                   106                       0
     11 x_1_3                   124                       0
     12 x_1_4                   144                       0
     13 x_1_5                   151                       0
     14 x_1_6                   161                       0
     16 x_2_1                     7                       0
     17 x_2_2                    14                       0
     18 x_2_3                    67                       0
     19 x_2_4                   106                       0
     20 x_2_5                   116                       0
     21 x_2_6                   153                       0
     23 x_3_1                    10                       0
     24 x_3_2       49.9999999999999                       0
     25 x_3_3                    65                       0
     26 x_3_4                    88                       0
     27 x_3_5                   151                       0
     28 x_3_6                   159                       0
     29 x_4_0                    13                       0
     30 x_4_1                    34                       0
     31 x_4_2                    40                       0
     32 x_4_3       49.9999999999999                       0
     33 x_4_4       54.9999999999999                       0
     34 x_4_5       87.9999999999999                       0
     35 x_4_6       89.9999999999999                       0
     36 x_5_0                    12                       0
     37 x_5_1                    34                       0
     38 x_5_2                    40                       0
     39 x_5_3       54.9999999999999                       0
     40 x_5_4       80.9999999999999                       0
     41 x_5_5       89.9999999999999                       0
     42 x_5_6                   122                       0
     44 x_6_1                    12                       0
     45 x_6_2                    21                       0
     46 x_6_3                    27                       0
     47 x_6_4       85.9999999999999                       0
     48 x_6_5       91.9999999999999                       0
     49 x_6_6                   161                       0
     50 x_7_0                     7                       0
     51 x_7_1                    12                       0
     52 x_7_2                    64                       0
     53 x_7_3       75.9999999999999                       0
     54 x_7_4       80.9999999999999                       0
     55 x_7_5                   116                       0
     56 x_7_6                   131                       0
     57 x_8_0                    34                       0
     58 x_8_1                    73                       0
     59 x_8_2                    76                       0
     60 x_8_3                    80                       0
     61 x_8_4                    85                       0
     62 x_8_5                    88                       0
     63 x_8_6                   111                       0
     65 y_0_1_1                   1                       0
     69 y_0_1_5                   1                       0
     72 y_0_2_1                   1                       0
     74 y_0_2_3                   1                       0
     75 y_0_2_4                   1                       0
     76 y_0_2_5                   1                       0
     77 y_0_2_6                   1                       0
     78 y_0_3_0                   1                       0
     79 y_0_3_1                   1                       0
     81 y_0_3_3                   1                       0
     82 y_0_3_4                   1                     725
     83 y_0_3_5                   1                       0
     86 y_0_4_1                   1                       0
     89 y_0_4_4                   1                       0
     90 y_0_4_5                   1                       0
     91 y_0_4_6                   1                       0
     93 y_0_5_1                   1                       0
     96 y_0_5_4                   1                       0
     97 y_0_5_5                   1                       0
     98 y_0_5_6                   1                       0
    100 y_0_6_1                   1                       0
    104 y_0_6_5                   1                       0
    107 y_0_7_1                   1                       0
    110 y_0_7_4                   1                       0
    111 y_0_7_5                   1                       0
    112 y_0_7_6                   1                       0
    114 y_0_8_1                   1                       0
    117 y_0_8_4                   1                       0
    118 y_0_8_5                   1                       0
    120 y_1_2_0                   1                       0
    123 y_1_2_3                   1                       0
    124 y_1_2_4                   1                       0
    126 y_1_2_6                   1                       0
    127 y_1_3_0                   1                       0
    130 y_1_3_3                   1                       0
    131 y_1_3_4                   1                       0
    132 y_1_3_5                   1                       0
    133 y_1_3_6                   1                       0
    134 y_1_4_0                   1                       0
    136 y_1_4_2                   1                       0
    137 y_1_4_3                   1                       0
    138 y_1_4_4                   1                       0
    139 y_1_4_5                   1                       0
    140 y_1_4_6                   1                       0
    141 y_1_5_0                   1                       0
    143 y_1_5_2                   1                       0
    144 y_1_5_3                   1                       0
    145 y_1_5_4                   1                       0
    146 y_1_5_5                   1                       0
    147 y_1_5_6                   1                       0
    148 y_1_6_0                   1                       0
    149 y_1_6_1                   1                     725
    150 y_1_6_2                   1                       0
    151 y_1_6_3                   1                       0
    153 y_1_6_5                   1                       0
    154 y_1_6_6                   1                       0
    157 y_1_7_2                   1                       0
    158 y_1_7_3                   1                       0
    159 y_1_7_4                   1                       0
    161 y_1_7_6                   1                       0
    162 y_1_8_0                   1                       0
    165 y_1_8_3                   1                       0
    166 y_1_8_4                   1                       0
    167 y_1_8_5                   1                       0
    168 y_1_8_6                   1                       0
    169 y_2_3_0                   1                       0
    170 y_2_3_1                   1                     725
    171 y_2_3_2                   1                       0
    172 y_2_3_3                   1                       0
    174 y_2_3_5                   1                       0
    176 y_2_4_0                   1                       0
    178 y_2_4_2                   1                       0
    181 y_2_4_5                   1                       0
    185 y_2_5_2                   1                       0
    188 y_2_5_5                   1                       0
    190 y_2_6_0                   1                       0
    191 y_2_6_1                   1                       0
    192 y_2_6_2                   1                       0
    195 y_2_6_5                   1                       0
    198 y_2_7_1                   1                       0
    199 y_2_7_2                   1                       0
    204 y_2_8_0                   1                       0
    206 y_2_8_2                   1                       0
    209 y_2_8_5                   1                       0
    213 y_3_4_2                   1                       0
    215 y_3_4_4                   1                       0
    216 y_3_4_5                   1                       0
    217 y_3_4_6                   1                       0
    220 y_3_5_2                   1                       0
    222 y_3_5_4                   1                       0
    223 y_3_5_5                   1                       0
    224 y_3_5_6                   1                       0
    226 y_3_6_1                   1                       0
    227 y_3_6_2                   1                       0
    230 y_3_6_5                   1                       0
    231 y_3_6_6                   1                       0
    233 y_3_7_1                   1                     725
    234 y_3_7_2                   1                       0
    236 y_3_7_4                   1                       0
    238 y_3_7_6                   1                       0
    241 y_3_8_2                   1                       0
    243 y_3_8_4                   1                     725
    245 y_3_8_6                   1                       0
    249 y_4_5_3                   1                       0
    251 y_4_5_5                   1                       0
    252 y_4_5_6                   1                       0
    253 y_4_6_0                   1                       0
    254 y_4_6_1                   1                       0
    256 y_4_6_3                   1                       0
    258 y_4_6_5                   1                       0
    261 y_4_7_1                   1                       0
    263 y_4_7_3                   1                       0
    264 y_4_7_4                   1                       0
    266 y_4_7_6                   1                       0
    267 y_4_8_0                   1                       0
    268 y_4_8_1                   1                       0
    270 y_4_8_3                   1                       0
    274 y_5_6_0                   1                       0
    275 y_5_6_1                   1                       0
    277 y_5_6_3                   1                       0
    279 y_5_6_5                   1                       0
    282 y_5_7_1                   1                       0
    284 y_5_7_3                   1                       0
    285 y_5_7_4                   1                       0
    287 y_5_7_6                   1                       0
    288 y_5_8_0                   1                       0
    289 y_5_8_1                   1                       0
    291 y_5_8_3                   1                       0
    297 y_6_7_2                   1                       0
    299 y_6_7_4                   1                       0
    301 y_6_7_6                   1                       0
    306 y_6_8_4                   1                       0
    308 y_6_8_6                   1                       0
    309 y_7_8_0                   1                       0
    312 y_7_8_3                   1                       0
    314 y_7_8_5                   1                       0
